(set-logic NRA)
(synth-fun ComputerHardware ((x1 Real)(x2 Real)(x3 Real)(x4 Real)(x5 Real)(x6 Real)) Real)
(declare-var x1 Real)
(declare-var x2 Real)
(declare-var x3 Real)
(declare-var x4 Real)
(declare-var x5 Real)
(declare-var x6 Real)
(constraint (= (ComputerHardware 125.0 256.0 6000.0 256.0 16.0 128.0) 198.0))
(constraint (= (ComputerHardware 29.0 8000.0 32000.0 32.0 8.0 32.0) 269.0))
(constraint (= (ComputerHardware 29.0 8000.0 32000.0 32.0 8.0 32.0) 220.0))
(constraint (= (ComputerHardware 29.0 8000.0 32000.0 32.0 8.0 32.0) 172.0))
(constraint (= (ComputerHardware 29.0 8000.0 16000.0 32.0 8.0 16.0) 132.0))
(constraint (= (ComputerHardware 26.0 8000.0 32000.0 64.0 8.0 32.0) 318.0))
(constraint (= (ComputerHardware 23.0 16000.0 32000.0 64.0 16.0 32.0) 367.0))
(constraint (= (ComputerHardware 23.0 16000.0 32000.0 64.0 16.0 32.0) 489.0))
(constraint (= (ComputerHardware 23.0 16000.0 64000.0 64.0 16.0 32.0) 636.0))
(constraint (= (ComputerHardware 23.0 32000.0 64000.0 128.0 32.0 64.0) 1144.0))
(constraint (= (ComputerHardware 400.0 1000.0 3000.0 0.0 1.0 2.0) 38.0))
(constraint (= (ComputerHardware 400.0 512.0 3500.0 4.0 1.0 6.0) 40.0))
(constraint (= (ComputerHardware 60.0 2000.0 8000.0 65.0 1.0 8.0) 92.0))
(constraint (= (ComputerHardware 50.0 4000.0 16000.0 65.0 1.0 8.0) 138.0))
(constraint (= (ComputerHardware 350.0 64.0 64.0 0.0 1.0 4.0) 10.0))
(constraint (= (ComputerHardware 200.0 512.0 16000.0 0.0 4.0 32.0) 35.0))
(constraint (= (ComputerHardware 167.0 524.0 2000.0 8.0 4.0 15.0) 19.0))
(constraint (= (ComputerHardware 143.0 512.0 5000.0 0.0 7.0 32.0) 28.0))
(constraint (= (ComputerHardware 143.0 1000.0 2000.0 0.0 5.0 16.0) 31.0))
(constraint (= (ComputerHardware 110.0 5000.0 5000.0 142.0 8.0 64.0) 120.0))
(constraint (= (ComputerHardware 143.0 1500.0 6300.0 0.0 5.0 32.0) 30.0))
(constraint (= (ComputerHardware 143.0 3100.0 6200.0 0.0 5.0 20.0) 33.0))
(constraint (= (ComputerHardware 143.0 2300.0 6200.0 0.0 6.0 64.0) 61.0))
(constraint (= (ComputerHardware 110.0 3100.0 6200.0 0.0 6.0 64.0) 76.0))
(constraint (= (ComputerHardware 320.0 128.0 6000.0 0.0 1.0 12.0) 23.0))
(constraint (= (ComputerHardware 320.0 512.0 2000.0 4.0 1.0 3.0) 69.0))
(constraint (= (ComputerHardware 320.0 256.0 6000.0 0.0 1.0 6.0) 33.0))
(constraint (= (ComputerHardware 320.0 256.0 3000.0 4.0 1.0 3.0) 27.0))
(constraint (= (ComputerHardware 320.0 512.0 5000.0 4.0 1.0 5.0) 77.0))
(constraint (= (ComputerHardware 320.0 256.0 5000.0 4.0 1.0 6.0) 27.0))
(constraint (= (ComputerHardware 25.0 1310.0 2620.0 131.0 12.0 24.0) 274.0))
(constraint (= (ComputerHardware 25.0 1310.0 2620.0 131.0 12.0 24.0) 368.0))
(constraint (= (ComputerHardware 50.0 2620.0 10480.0 30.0 12.0 24.0) 32.0))
(constraint (= (ComputerHardware 50.0 2620.0 10480.0 30.0 12.0 24.0) 63.0))
(constraint (= (ComputerHardware 56.0 5240.0 20970.0 30.0 12.0 24.0) 106.0))
(constraint (= (ComputerHardware 64.0 5240.0 20970.0 30.0 12.0 24.0) 208.0))
(constraint (= (ComputerHardware 50.0 500.0 2000.0 8.0 1.0 4.0) 20.0))
(constraint (= (ComputerHardware 50.0 1000.0 4000.0 8.0 1.0 5.0) 29.0))
(constraint (= (ComputerHardware 50.0 2000.0 8000.0 8.0 1.0 5.0) 71.0))
(constraint (= (ComputerHardware 50.0 1000.0 4000.0 8.0 3.0 5.0) 26.0))
(constraint (= (ComputerHardware 50.0 1000.0 8000.0 8.0 3.0 5.0) 36.0))
(constraint (= (ComputerHardware 50.0 2000.0 16000.0 8.0 3.0 5.0) 40.0))
(constraint (= (ComputerHardware 50.0 2000.0 16000.0 8.0 3.0 6.0) 52.0))
(constraint (= (ComputerHardware 50.0 2000.0 16000.0 8.0 3.0 6.0) 60.0))
(constraint (= (ComputerHardware 133.0 1000.0 12000.0 9.0 3.0 12.0) 72.0))
(constraint (= (ComputerHardware 133.0 1000.0 8000.0 9.0 3.0 12.0) 72.0))
(constraint (= (ComputerHardware 810.0 512.0 512.0 8.0 1.0 1.0) 18.0))
(constraint (= (ComputerHardware 810.0 1000.0 5000.0 0.0 1.0 1.0) 20.0))
(constraint (= (ComputerHardware 320.0 512.0 8000.0 4.0 1.0 5.0) 40.0))
(constraint (= (ComputerHardware 200.0 512.0 8000.0 8.0 1.0 8.0) 62.0))
(constraint (= (ComputerHardware 700.0 384.0 8000.0 0.0 1.0 1.0) 24.0))
(constraint (= (ComputerHardware 700.0 256.0 2000.0 0.0 1.0 1.0) 24.0))
(constraint (= (ComputerHardware 140.0 1000.0 16000.0 16.0 1.0 3.0) 138.0))
(constraint (= (ComputerHardware 200.0 1000.0 8000.0 0.0 1.0 2.0) 36.0))
(constraint (= (ComputerHardware 110.0 1000.0 4000.0 16.0 1.0 2.0) 26.0))
(constraint (= (ComputerHardware 110.0 1000.0 12000.0 16.0 1.0 2.0) 60.0))
(constraint (= (ComputerHardware 220.0 1000.0 8000.0 16.0 1.0 2.0) 71.0))
(constraint (= (ComputerHardware 800.0 256.0 8000.0 0.0 1.0 4.0) 12.0))
(constraint (= (ComputerHardware 800.0 256.0 8000.0 0.0 1.0 4.0) 14.0))
(constraint (= (ComputerHardware 800.0 256.0 8000.0 0.0 1.0 4.0) 20.0))
(constraint (= (ComputerHardware 800.0 256.0 8000.0 0.0 1.0 4.0) 16.0))
(constraint (= (ComputerHardware 800.0 256.0 8000.0 0.0 1.0 4.0) 22.0))
(constraint (= (ComputerHardware 125.0 512.0 1000.0 0.0 8.0 20.0) 36.0))
(constraint (= (ComputerHardware 75.0 2000.0 8000.0 64.0 1.0 38.0) 144.0))
(constraint (= (ComputerHardware 75.0 2000.0 16000.0 64.0 1.0 38.0) 144.0))
(constraint (= (ComputerHardware 75.0 2000.0 16000.0 128.0 1.0 38.0) 259.0))
(constraint (= (ComputerHardware 90.0 256.0 1000.0 0.0 3.0 10.0) 17.0))
(constraint (= (ComputerHardware 105.0 256.0 2000.0 0.0 3.0 10.0) 26.0))
(constraint (= (ComputerHardware 105.0 1000.0 4000.0 0.0 3.0 24.0) 32.0))
(constraint (= (ComputerHardware 105.0 2000.0 4000.0 8.0 3.0 19.0) 32.0))
(constraint (= (ComputerHardware 75.0 2000.0 8000.0 8.0 3.0 24.0) 62.0))
(constraint (= (ComputerHardware 75.0 3000.0 8000.0 8.0 3.0 48.0) 64.0))
(constraint (= (ComputerHardware 175.0 256.0 2000.0 0.0 3.0 24.0) 22.0))
(constraint (= (ComputerHardware 300.0 768.0 3000.0 0.0 6.0 24.0) 36.0))
(constraint (= (ComputerHardware 300.0 768.0 3000.0 6.0 6.0 24.0) 44.0))
(constraint (= (ComputerHardware 300.0 768.0 12000.0 6.0 6.0 24.0) 50.0))
(constraint (= (ComputerHardware 300.0 768.0 4500.0 0.0 1.0 24.0) 45.0))
(constraint (= (ComputerHardware 300.0 384.0 12000.0 6.0 1.0 24.0) 53.0))
(constraint (= (ComputerHardware 300.0 192.0 768.0 6.0 6.0 24.0) 36.0))
(constraint (= (ComputerHardware 180.0 768.0 12000.0 6.0 1.0 31.0) 84.0))
(constraint (= (ComputerHardware 330.0 1000.0 3000.0 0.0 2.0 4.0) 16.0))
(constraint (= (ComputerHardware 300.0 1000.0 4000.0 8.0 3.0 64.0) 38.0))
(constraint (= (ComputerHardware 300.0 1000.0 16000.0 8.0 2.0 112.0) 38.0))
(constraint (= (ComputerHardware 330.0 1000.0 2000.0 0.0 1.0 2.0) 16.0))
(constraint (= (ComputerHardware 330.0 1000.0 4000.0 0.0 3.0 6.0) 22.0))
(constraint (= (ComputerHardware 140.0 2000.0 4000.0 0.0 3.0 6.0) 29.0))
(constraint (= (ComputerHardware 140.0 2000.0 4000.0 0.0 4.0 8.0) 40.0))
(constraint (= (ComputerHardware 140.0 2000.0 4000.0 8.0 1.0 20.0) 35.0))
(constraint (= (ComputerHardware 140.0 2000.0 32000.0 32.0 1.0 20.0) 134.0))
(constraint (= (ComputerHardware 140.0 2000.0 8000.0 32.0 1.0 54.0) 66.0))
(constraint (= (ComputerHardware 140.0 2000.0 32000.0 32.0 1.0 54.0) 141.0))
(constraint (= (ComputerHardware 140.0 2000.0 32000.0 32.0 1.0 54.0) 189.0))
(constraint (= (ComputerHardware 140.0 2000.0 4000.0 8.0 1.0 20.0) 22.0))
(constraint (= (ComputerHardware 57.0 4000.0 16000.0 1.0 6.0 12.0) 132.0))
(constraint (= (ComputerHardware 57.0 4000.0 24000.0 64.0 12.0 16.0) 237.0))
(constraint (= (ComputerHardware 26.0 16000.0 32000.0 64.0 16.0 24.0) 465.0))
(constraint (= (ComputerHardware 26.0 16000.0 32000.0 64.0 8.0 24.0) 465.0))
(constraint (= (ComputerHardware 26.0 8000.0 32000.0 0.0 8.0 24.0) 277.0))
(constraint (= (ComputerHardware 26.0 8000.0 16000.0 0.0 8.0 16.0) 185.0))
(constraint (= (ComputerHardware 480.0 96.0 512.0 0.0 1.0 1.0) 6.0))
(constraint (= (ComputerHardware 203.0 1000.0 2000.0 0.0 1.0 5.0) 24.0))
(constraint (= (ComputerHardware 115.0 512.0 6000.0 16.0 1.0 6.0) 45.0))
(constraint (= (ComputerHardware 1100.0 512.0 1500.0 0.0 1.0 1.0) 7.0))
(constraint (= (ComputerHardware 1100.0 768.0 2000.0 0.0 1.0 1.0) 13.0))
(constraint (= (ComputerHardware 600.0 768.0 2000.0 0.0 1.0 1.0) 16.0))
(constraint (= (ComputerHardware 400.0 2000.0 4000.0 0.0 1.0 1.0) 32.0))
(constraint (= (ComputerHardware 400.0 4000.0 8000.0 0.0 1.0 1.0) 32.0))
(constraint (= (ComputerHardware 900.0 1000.0 1000.0 0.0 1.0 2.0) 11.0))
(constraint (= (ComputerHardware 900.0 512.0 1000.0 0.0 1.0 2.0) 11.0))
(constraint (= (ComputerHardware 900.0 1000.0 4000.0 4.0 1.0 2.0) 18.0))
(constraint (= (ComputerHardware 900.0 1000.0 4000.0 8.0 1.0 2.0) 22.0))
(constraint (= (ComputerHardware 900.0 2000.0 4000.0 0.0 3.0 6.0) 37.0))
(constraint (= (ComputerHardware 225.0 2000.0 4000.0 8.0 3.0 6.0) 40.0))
(constraint (= (ComputerHardware 225.0 2000.0 4000.0 8.0 3.0 6.0) 34.0))
(constraint (= (ComputerHardware 180.0 2000.0 8000.0 8.0 1.0 6.0) 50.0))
(constraint (= (ComputerHardware 185.0 2000.0 16000.0 16.0 1.0 6.0) 76.0))
(constraint (= (ComputerHardware 180.0 2000.0 16000.0 16.0 1.0 6.0) 66.0))
(constraint (= (ComputerHardware 225.0 1000.0 4000.0 2.0 3.0 6.0) 24.0))
(constraint (= (ComputerHardware 25.0 2000.0 12000.0 8.0 1.0 4.0) 49.0))
(constraint (= (ComputerHardware 25.0 2000.0 12000.0 16.0 3.0 5.0) 66.0))
(constraint (= (ComputerHardware 17.0 4000.0 16000.0 8.0 6.0 12.0) 100.0))
(constraint (= (ComputerHardware 17.0 4000.0 16000.0 32.0 6.0 12.0) 133.0))
(constraint (= (ComputerHardware 1500.0 768.0 1000.0 0.0 0.0 0.0) 12.0))
(constraint (= (ComputerHardware 1500.0 768.0 2000.0 0.0 0.0 0.0) 18.0))
(constraint (= (ComputerHardware 800.0 768.0 2000.0 0.0 0.0 0.0) 20.0))
(constraint (= (ComputerHardware 50.0 2000.0 4000.0 0.0 3.0 6.0) 27.0))
(constraint (= (ComputerHardware 50.0 2000.0 8000.0 8.0 3.0 6.0) 45.0))
(constraint (= (ComputerHardware 50.0 2000.0 8000.0 8.0 1.0 6.0) 56.0))
(constraint (= (ComputerHardware 50.0 2000.0 16000.0 24.0 1.0 6.0) 70.0))
(constraint (= (ComputerHardware 50.0 2000.0 16000.0 24.0 1.0 6.0) 80.0))
(constraint (= (ComputerHardware 50.0 8000.0 16000.0 48.0 1.0 10.0) 136.0))
(constraint (= (ComputerHardware 100.0 1000.0 8000.0 0.0 2.0 6.0) 16.0))
(constraint (= (ComputerHardware 100.0 1000.0 8000.0 24.0 2.0 6.0) 26.0))
(constraint (= (ComputerHardware 100.0 1000.0 8000.0 24.0 3.0 6.0) 32.0))
(constraint (= (ComputerHardware 50.0 2000.0 16000.0 12.0 3.0 16.0) 45.0))
(constraint (= (ComputerHardware 50.0 2000.0 16000.0 24.0 6.0 16.0) 54.0))
(constraint (= (ComputerHardware 50.0 2000.0 16000.0 24.0 6.0 16.0) 65.0))
(constraint (= (ComputerHardware 150.0 512.0 4000.0 0.0 8.0 128.0) 30.0))
(constraint (= (ComputerHardware 115.0 2000.0 8000.0 16.0 1.0 3.0) 50.0))
(constraint (= (ComputerHardware 115.0 2000.0 4000.0 2.0 1.0 5.0) 40.0))
(constraint (= (ComputerHardware 92.0 2000.0 8000.0 32.0 1.0 6.0) 62.0))
(constraint (= (ComputerHardware 92.0 2000.0 8000.0 32.0 1.0 6.0) 60.0))
(constraint (= (ComputerHardware 92.0 2000.0 8000.0 4.0 1.0 6.0) 50.0))
(constraint (= (ComputerHardware 75.0 4000.0 16000.0 16.0 1.0 6.0) 66.0))
(constraint (= (ComputerHardware 60.0 4000.0 16000.0 32.0 1.0 6.0) 86.0))
(constraint (= (ComputerHardware 60.0 2000.0 16000.0 64.0 5.0 8.0) 74.0))
(constraint (= (ComputerHardware 60.0 4000.0 16000.0 64.0 5.0 8.0) 93.0))
(constraint (= (ComputerHardware 50.0 4000.0 16000.0 64.0 5.0 10.0) 111.0))
(constraint (= (ComputerHardware 72.0 4000.0 16000.0 64.0 8.0 16.0) 143.0))
(constraint (= (ComputerHardware 72.0 2000.0 8000.0 16.0 6.0 8.0) 105.0))
(constraint (= (ComputerHardware 40.0 8000.0 16000.0 32.0 8.0 16.0) 214.0))
(constraint (= (ComputerHardware 40.0 8000.0 32000.0 64.0 8.0 24.0) 277.0))
(constraint (= (ComputerHardware 35.0 8000.0 32000.0 64.0 8.0 24.0) 370.0))
(constraint (= (ComputerHardware 38.0 16000.0 32000.0 128.0 16.0 32.0) 510.0))
(constraint (= (ComputerHardware 48.0 4000.0 24000.0 32.0 8.0 24.0) 214.0))
(constraint (= (ComputerHardware 38.0 8000.0 32000.0 64.0 8.0 24.0) 326.0))
(constraint (= (ComputerHardware 30.0 16000.0 32000.0 256.0 16.0 24.0) 510.0))
(constraint (= (ComputerHardware 112.0 1000.0 1000.0 0.0 1.0 4.0) 8.0))
(constraint (= (ComputerHardware 84.0 1000.0 2000.0 0.0 1.0 6.0) 12.0))
(constraint (= (ComputerHardware 56.0 1000.0 4000.0 0.0 1.0 6.0) 17.0))
(constraint (= (ComputerHardware 56.0 2000.0 6000.0 0.0 1.0 8.0) 21.0))
(constraint (= (ComputerHardware 56.0 2000.0 8000.0 0.0 1.0 8.0) 24.0))
(constraint (= (ComputerHardware 56.0 4000.0 8000.0 0.0 1.0 8.0) 34.0))
(constraint (= (ComputerHardware 56.0 4000.0 12000.0 0.0 1.0 8.0) 42.0))
(constraint (= (ComputerHardware 56.0 4000.0 16000.0 0.0 1.0 8.0) 46.0))
(constraint (= (ComputerHardware 38.0 4000.0 8000.0 32.0 16.0 32.0) 51.0))
(constraint (= (ComputerHardware 38.0 4000.0 8000.0 32.0 16.0 32.0) 116.0))
(constraint (= (ComputerHardware 38.0 8000.0 16000.0 64.0 4.0 8.0) 100.0))
(constraint (= (ComputerHardware 38.0 8000.0 24000.0 160.0 4.0 8.0) 140.0))
(constraint (= (ComputerHardware 38.0 4000.0 16000.0 128.0 16.0 32.0) 212.0))
(constraint (= (ComputerHardware 200.0 1000.0 2000.0 0.0 1.0 2.0) 25.0))
(constraint (= (ComputerHardware 200.0 1000.0 4000.0 0.0 1.0 4.0) 30.0))
(constraint (= (ComputerHardware 200.0 2000.0 8000.0 64.0 1.0 5.0) 41.0))
(constraint (= (ComputerHardware 250.0 512.0 4000.0 0.0 1.0 7.0) 25.0))
(constraint (= (ComputerHardware 250.0 512.0 4000.0 0.0 4.0 7.0) 50.0))
(constraint (= (ComputerHardware 250.0 1000.0 16000.0 1.0 1.0 8.0) 50.0))
(constraint (= (ComputerHardware 160.0 512.0 4000.0 2.0 1.0 5.0) 30.0))
(constraint (= (ComputerHardware 160.0 512.0 2000.0 2.0 3.0 8.0) 32.0))
(constraint (= (ComputerHardware 160.0 1000.0 4000.0 8.0 1.0 14.0) 38.0))
(constraint (= (ComputerHardware 160.0 1000.0 8000.0 16.0 1.0 14.0) 60.0))
(constraint (= (ComputerHardware 160.0 2000.0 8000.0 32.0 1.0 13.0) 109.0))
(constraint (= (ComputerHardware 240.0 512.0 1000.0 8.0 1.0 3.0) 6.0))
(constraint (= (ComputerHardware 240.0 512.0 2000.0 8.0 1.0 5.0) 11.0))
(constraint (= (ComputerHardware 105.0 2000.0 4000.0 8.0 3.0 8.0) 22.0))
(constraint (= (ComputerHardware 105.0 2000.0 6000.0 16.0 6.0 16.0) 33.0))
(constraint (= (ComputerHardware 105.0 2000.0 8000.0 16.0 4.0 14.0) 58.0))
(constraint (= (ComputerHardware 52.0 4000.0 16000.0 32.0 4.0 12.0) 130.0))
(constraint (= (ComputerHardware 70.0 4000.0 12000.0 8.0 6.0 8.0) 75.0))
(constraint (= (ComputerHardware 59.0 4000.0 12000.0 32.0 6.0 12.0) 113.0))
(constraint (= (ComputerHardware 59.0 8000.0 16000.0 64.0 12.0 24.0) 188.0))
(constraint (= (ComputerHardware 26.0 8000.0 24000.0 32.0 8.0 16.0) 173.0))
(constraint (= (ComputerHardware 26.0 8000.0 32000.0 64.0 12.0 16.0) 248.0))
(constraint (= (ComputerHardware 26.0 8000.0 32000.0 128.0 24.0 32.0) 405.0))
(constraint (= (ComputerHardware 116.0 2000.0 8000.0 32.0 5.0 28.0) 70.0))
(constraint (= (ComputerHardware 50.0 2000.0 32000.0 24.0 6.0 26.0) 114.0))
(constraint (= (ComputerHardware 50.0 2000.0 32000.0 48.0 26.0 52.0) 208.0))
(constraint (= (ComputerHardware 50.0 2000.0 32000.0 112.0 52.0 104.0) 307.0))
(constraint (= (ComputerHardware 50.0 4000.0 32000.0 112.0 52.0 104.0) 397.0))
(constraint (= (ComputerHardware 30.0 8000.0 64000.0 96.0 12.0 176.0) 915.0))
(constraint (= (ComputerHardware 30.0 8000.0 64000.0 128.0 12.0 176.0) 1150.0))
(constraint (= (ComputerHardware 180.0 262.0 4000.0 0.0 1.0 3.0) 12.0))
(constraint (= (ComputerHardware 180.0 512.0 4000.0 0.0 1.0 3.0) 14.0))
(constraint (= (ComputerHardware 180.0 262.0 4000.0 0.0 1.0 3.0) 18.0))
(constraint (= (ComputerHardware 180.0 512.0 4000.0 0.0 1.0 3.0) 21.0))
(constraint (= (ComputerHardware 124.0 1000.0 8000.0 0.0 1.0 8.0) 42.0))
(constraint (= (ComputerHardware 98.0 1000.0 8000.0 32.0 2.0 8.0) 46.0))
(constraint (= (ComputerHardware 125.0 2000.0 8000.0 0.0 2.0 14.0) 52.0))
(constraint (= (ComputerHardware 480.0 512.0 8000.0 32.0 0.0 0.0) 67.0))
(constraint (= (ComputerHardware 480.0 1000.0 4000.0 0.0 0.0 0.0) 45.0))


(precondition (and (>= x1 0.0) (>= x2 0.0) (>= x3 0.0) (>= x4 0.0) (>= x5 0.0) (>= x6 0.0)))

(constraint (=> (and (>= x1 0.0) (>= x2 0.0) (>= x3 0.0) (>= x4 0.0) (>= x5 0.0) (>= x6 0.0)) (>= (ComputerHardware x1 x2 x3 x4 x5 x6) 0.0)))
(constraint (forall ((x1 Real)(x2 Real)(x3 Real)(x4 Real)(x5 Real)(x6 Real)(cdgp.P1.x1 Real)) (=> (and (>= cdgp.P1.x1 0.0) (>= x1 0.0) (>= x2 0.0) (>= x3 0.0) (>= x4 0.0) (>= x5 0.0) (>= x6 0.0)) (=> (> cdgp.P1.x1 x1)  (<= (ComputerHardware cdgp.P1.x1 x2 x3 x4 x5 x6) (ComputerHardware x1 x2 x3 x4 x5 x6))))))
(constraint (forall ((x1 Real)(x2 Real)(x3 Real)(x4 Real)(x5 Real)(x6 Real)(cdgp.P2.x4 Real)) (=> (and (>= cdgp.P2.x4 0.0) (>= x1 0.0) (>= x2 0.0) (>= x3 0.0) (>= x4 0.0) (>= x5 0.0) (>= x6 0.0)) (=> (> cdgp.P2.x4 x4)  (>= (ComputerHardware x1 x2 x3 cdgp.P2.x4 x5 x6) (ComputerHardware x1 x2 x3 x4 x5 x6))))))

(check-synth)
